%%%%%%%%%%%%%%%%%%%%%%%%%%%%%%%%%%%%%%%%%%%%%%%%%%%%%%%%%%%%%%%%%%%%%%%%%
%FILE DATA:	Soccer Computational Problem for MiniZinc Models
%AUTHORS:	Robinson Duque, Alejandro Arbelaez, Juan Francisco Díaz
%CONTACT:  	robinson.duque@correounivalle.edu.co 
%LAST UPDATE:	May, 2018 
%ROUND ROBIN:2
%TEAMS:20
%PRESENT FIXTURE:23
%FIXTURES TO PLAY:15
%GAMES TO PLAY:150
%%%%%%%%%%%%%%%%%%%%%%%%%%%%%%%%%%%%%%%%%%%%%%%%%%%%%%%%%%%%%%%%%%%%%%%%%
%Number of teams:
n=20;

%For the purpose of our models, we offer two representations of the games to play, namely fixtures and games to play:

%Fixtures to play:
%fixtures=[|0,1,0,1,1,0,1,1,0,1,1,1,1,1,1,0,1,1,1,1
%|1,0,1,1,1,1,1,1,1,0,0,1,0,1,1,1,1,1,0,1
%|0,1,0,0,1,0,1,0,1,1,1,1,1,1,1,1,1,1,1,1
%|1,1,0,0,0,1,1,1,0,1,0,1,1,1,1,1,1,1,1,1
%|1,1,1,0,0,1,0,1,0,0,1,1,1,1,1,1,1,1,1,1
%|0,1,0,1,1,0,1,0,1,0,1,1,1,1,1,1,1,1,1,1
%|1,1,1,1,0,1,0,1,1,1,1,1,0,1,1,0,0,1,1,1
%|1,1,0,1,1,0,1,0,0,1,1,1,1,1,1,1,1,1,0,1
%|0,1,1,0,0,1,1,0,0,1,1,1,1,1,1,1,1,1,1,1
%|1,0,1,1,0,0,1,1,1,0,0,1,1,1,1,1,1,1,1,1
%|1,0,1,0,1,1,1,1,1,0,0,1,1,1,0,1,1,1,1,1
%|1,1,1,1,1,1,1,1,1,1,1,0,0,1,1,1,1,0,0,0
%|1,0,1,1,1,1,0,1,1,1,1,0,0,0,1,1,1,1,1,1
%|1,1,1,1,1,1,1,1,1,1,1,1,0,0,1,1,0,0,1,0
%|1,1,1,1,1,1,1,1,1,1,0,1,1,1,0,1,0,0,1,0
%|0,1,1,1,1,1,0,1,1,1,1,1,1,1,1,0,1,1,0,0
%|1,1,1,1,1,1,0,1,1,1,1,1,1,0,0,1,0,0,1,1
%|1,1,1,1,1,1,1,1,1,1,1,0,1,0,0,1,0,0,1,1
%|1,0,1,1,1,1,1,0,1,1,1,0,1,1,1,0,1,1,0,1
%|1,1,1,1,1,1,1,1,1,1,1,0,1,0,0,0,1,1,1,0|];

%Played Fixtures:
%PlayedFixtures=[|0,1,2,1,1,2,1,1,2,1,1,1,1,1,1,2,1,1,1,1
%|1,0,1,1,1,1,1,1,1,2,2,1,2,1,1,1,1,1,2,1
%|2,1,0,2,1,2,1,2,1,1,1,1,1,1,1,1,1,1,1,1
%|1,1,2,0,2,1,1,1,2,1,2,1,1,1,1,1,1,1,1,1
%|1,1,1,2,0,1,2,1,2,2,1,1,1,1,1,1,1,1,1,1
%|2,1,2,1,1,0,1,2,1,2,1,1,1,1,1,1,1,1,1,1
%|1,1,1,1,2,1,0,1,1,1,1,1,2,1,1,2,2,1,1,1
%|1,1,2,1,1,2,1,0,2,1,1,1,1,1,1,1,1,1,2,1
%|2,1,1,2,2,1,1,2,0,1,1,1,1,1,1,1,1,1,1,1
%|1,2,1,1,2,2,1,1,1,0,2,1,1,1,1,1,1,1,1,1
%|1,2,1,2,1,1,1,1,1,2,0,1,1,1,2,1,1,1,1,1
%|1,1,1,1,1,1,1,1,1,1,1,0,2,1,1,1,1,2,2,2
%|1,2,1,1,1,1,2,1,1,1,1,2,0,2,1,1,1,1,1,1
%|1,1,1,1,1,1,1,1,1,1,1,1,2,0,1,1,2,2,1,2
%|1,1,1,1,1,1,1,1,1,1,2,1,1,1,0,1,2,2,1,2
%|2,1,1,1,1,1,2,1,1,1,1,1,1,1,1,0,1,1,2,2
%|1,1,1,1,1,1,2,1,1,1,1,1,1,2,2,1,0,2,1,1
%|1,1,1,1,1,1,1,1,1,1,1,2,1,2,2,1,2,0,1,1
%|1,2,1,1,1,1,1,2,1,1,1,2,1,1,1,2,1,1,0,1
%|1,1,1,1,1,1,1,1,1,1,1,2,1,2,2,2,1,1,1,0|];

%Games to play:
games=[|2,1|3,2|4,1|4,2|5,1|5,2|5,3|6,2|6,4|6,5|7,1|7,2|7,3|7,4|7,6|8,1|8,2|8,4|8,5|8,7|9,2|9,3|9,6|9,7|10,1|10,3|10,4|10,7|10,8|10,9|11,1|11,3|11,5|11,6|11,7|11,8|11,9|12,1|12,2|12,3|12,4|12,5|12,6|12,7|12,8|12,9|12,10|12,11|13,1|13,3|13,4|13,5|13,6|13,8|13,9|13,10|13,11|14,1|14,2|14,3|14,4|14,5|14,6|14,7|14,8|14,9|14,10|14,11|14,12|15,1|15,2|15,3|15,4|15,5|15,6|15,7|15,8|15,9|15,10|15,12|15,13|15,14|16,2|16,3|16,4|16,5|16,6|16,8|16,9|16,10|16,11|16,12|16,13|16,14|16,15|17,1|17,2|17,3|17,4|17,5|17,6|17,8|17,9|17,10|17,11|17,12|17,13|17,16|18,1|18,2|18,3|18,4|18,5|18,6|18,7|18,8|18,9|18,10|18,11|18,13|18,16|19,1|19,3|19,4|19,5|19,6|19,7|19,9|19,10|19,11|19,13|19,14|19,15|19,17|19,18|20,1|20,2|20,3|20,4|20,5|20,6|20,7|20,8|20,9|20,10|20,11|20,13|20,17|20,18|20,19|];

%Played Games:
%PlayedGames=[|2,1|3,1|3,1|3,2|4,1|4,2|4,3|4,3|5,1|5,2|5,3|5,4|5,4|6,1|6,1|6,2|6,3|6,3|6,4|6,5|7,1|7,2|7,3|7,4|7,5|7,5|7,6|8,1|8,2|8,3|8,3|8,4|8,5|8,6|8,6|8,7|9,1|9,1|9,2|9,3|9,4|9,4|9,5|9,5|9,6|9,7|9,8|9,8|10,1|10,2|10,2|10,3|10,4|10,5|10,5|10,6|10,6|10,7|10,8|10,9|11,1|11,2|11,2|11,3|11,4|11,4|11,5|11,6|11,7|11,8|11,9|11,10|11,10|12,1|12,2|12,3|12,4|12,5|12,6|12,7|12,8|12,9|12,10|12,11|13,1|13,2|13,2|13,3|13,4|13,5|13,6|13,7|13,7|13,8|13,9|13,10|13,11|13,12|13,12|14,1|14,2|14,3|14,4|14,5|14,6|14,7|14,8|14,9|14,10|14,11|14,12|14,13|14,13|15,1|15,2|15,3|15,4|15,5|15,6|15,7|15,8|15,9|15,10|15,11|15,11|15,12|15,13|15,14|16,1|16,1|16,2|16,3|16,4|16,5|16,6|16,7|16,7|16,8|16,9|16,10|16,11|16,12|16,13|16,14|16,15|17,1|17,2|17,3|17,4|17,5|17,6|17,7|17,7|17,8|17,9|17,10|17,11|17,12|17,13|17,14|17,14|17,15|17,15|17,16|18,1|18,2|18,3|18,4|18,5|18,6|18,7|18,8|18,9|18,10|18,11|18,12|18,12|18,13|18,14|18,14|18,15|18,15|18,16|18,17|18,17|19,1|19,2|19,2|19,3|19,4|19,5|19,6|19,7|19,8|19,8|19,9|19,10|19,11|19,12|19,12|19,13|19,14|19,15|19,16|19,16|19,17|19,18|20,1|20,2|20,3|20,4|20,5|20,6|20,7|20,8|20,9|20,10|20,11|20,12|20,12|20,13|20,14|20,14|20,15|20,15|20,16|20,16|20,17|20,18|20,19|];

%Played Games - Win Results:
%% 0  0  0  0  0  0  0  1  0  0  0  0  0  0  0  0  0  0  1  0
%% 1  0  1  1  0  1  1  0  1  0  0  0  0  0  0  0  0  0  0  0
%% 0  0  0  0  0  0  0  0  0  0  0  0  0  0  0  0  0  0  0  0
%% 0  0  0  0  0  0  0  0  0  1  0  0  0  0  0  0  0  0  1  0
%% 1  0  1  0  0  1  0  0  0  0  0  0  0  0  0  0  0  0  1  0
%% 0  0  0  0  0  0  0  0  1  0  0  0  1  0  0  0  0  0  0  0
%% 1  0  1  1  0  1  0  1  1  1  1  0  0  0  0  0  0  0  1  0
%% 0  0  0  0  0  0  0  0  0  0  0  0  0  0  0  0  0  0  0  0
%% 0  0  0  0  0  0  0  0  0  0  0  0  0  0  0  0  0  0  1  0
%% 0  0  0  0  0  0  0  1  0  0  0  0  1  0  0  0  0  0  0  0
%% 1  0  1  0  0  1  0  0  1  0  0  0  1  0  0  0  0  0  0  0
%% 1  1  0  0  0  0  0  0  1  0  0  0  0  0  0  0  1  1  0  0
%% 0  0  0  0  0  0  0  0  0  0  0  0  0  0  0  0  0  0  0  0
%% 0  0  1  0  1  0  1  0  0  1  1  1  0  0  0  0  1  1  0  0
%% 0  1  0  1  1  1  1  0  0  1  0  1  1  1  0  1  2  2  0  0
%% 0  1  0  0  1  0  0  1  0  0  1  1  0  0  0  0  1  0  0  0
%% 0  1  0  1  0  0  0  1  0  0  0  0  1  0  0  0  0  0  0  0
%% 1  1  0  1  1  0  1  0  1  1  1  0  0  0  0  0  0  0  0  0
%% 0  0  0  0  0  0  0  0  0  0  0  0  0  0  0  0  0  0  0  0
%% 0  0  1  1  1  1  1  0  1  1  1  0  1  2  0  2  0  0  1  0
%Played Games - Tie Results:
%% 0  0  2  1  0  2  0  0  2  1  0  0  1  1  1  2  1  0  0  1
%% 0  0  0  0  1  0  0  1  0  2  2  0  2  1  0  0  0  0  2  1
%% 2  0  0  2  0  2  0  2  1  1  0  1  1  0  1  1  1  1  1  0
%% 1  0  2  0  2  1  0  1  2  0  2  1  1  1  0  1  0  0  0  0
%% 0  1  0  2  0  0  2  1  2  2  1  1  1  0  0  0  1  0  0  0
%% 2  0  2  1  0  0  0  2  0  2  0  1  0  1  0  1  1  1  1  0
%% 0  0  0  0  2  0  0  0  0  0  0  1  2  0  0  2  2  0  0  0
%% 0  1  2  1  1  2  0  0  2  0  1  1  1  1  1  0  0  1  2  1
%% 2  0  1  2  2  0  0  2  0  1  0  0  1  1  1  1  1  0  0  0
%% 1  2  1  0  2  2  0  0  1  0  2  1  0  0  0  1  1  0  1  0
%% 0  2  0  2  1  0  0  1  0  2  0  1  0  0  2  0  1  0  1  0
%% 0  0  1  1  1  1  1  1  0  1  1  0  2  0  0  0  0  1  2  2
%% 1  2  1  1  1  0  2  1  1  0  0  2  0  2  0  1  0  1  1  0
%% 1  1  0  1  0  1  0  1  1  0  0  0  2  0  0  1  1  1  1  0
%% 1  0  1  0  0  0  0  1  1  0  2  0  0  0  0  0  0  0  1  2
%% 2  0  1  1  0  1  2  0  1  1  0  0  1  1  0  0  0  1  2  0
%% 1  0  1  0  1  1  2  0  1  1  1  0  0  1  0  0  0  2  1  1
%% 0  0  1  0  0  1  0  1  0  0  0  1  1  1  0  1  2  0  1  1
%% 0  2  1  0  0  1  0  2  0  1  1  2  1  1  1  2  1  1  0  0
%% 1  1  0  0  0  0  0  1  0  0  0  2  0  0  2  0  1  1  0  0
%Played Games - Lose Results:
%% 0  1  0  0  1  0  1  0  0  0  1  1  0  0  0  0  0  1  0  0
%% 0  0  0  0  0  0  0  0  0  0  0  1  0  0  1  1  1  1  0  0
%% 0  1  0  0  1  0  1  0  0  0  1  0  0  1  0  0  0  0  0  1
%% 0  1  0  0  0  0  1  0  0  0  0  0  0  0  1  0  1  1  0  1
%% 0  0  0  0  0  0  0  0  0  0  0  0  0  1  1  1  0  1  0  1
%% 0  1  0  0  1  0  1  0  0  0  1  0  0  0  1  0  0  0  0  1
%% 0  1  0  0  0  0  0  0  0  0  0  0  0  1  1  0  0  1  0  1
%% 1  0  0  0  0  0  1  0  0  1  0  0  0  0  0  1  1  0  0  0
%% 0  1  0  0  0  1  1  0  0  0  1  1  0  0  0  0  0  1  0  1
%% 0  0  0  1  0  0  1  0  0  0  0  0  0  1  1  0  0  1  0  1
%% 0  0  0  0  0  0  1  0  0  0  0  0  0  1  0  1  0  1  0  1
%% 0  0  0  0  0  0  0  0  0  0  0  0  0  1  1  1  0  0  0  0
%% 0  0  0  0  0  1  0  0  0  1  1  0  0  0  1  0  1  0  0  1
%% 0  0  0  0  0  0  0  0  0  0  0  0  0  0  1  0  0  0  0  2
%% 0  0  0  0  0  0  0  0  0  0  0  0  0  0  0  0  0  0  0  0
%% 0  0  0  0  0  0  0  0  0  0  0  0  0  0  1  0  0  0  0  2
%% 0  0  0  0  0  0  0  0  0  0  0  1  0  1  2  1  0  0  0  0
%% 0  0  0  0  0  0  0  0  0  0  0  1  0  1  2  0  0  0  0  0
%% 1  0  0  1  1  0  1  0  1  0  0  0  0  0  0  0  0  0  0  1
%% 0  0  0  0  0  0  0  0  0  0  0  0  0  0  0  0  0  0  0  0

%%Initial points:
iPoints=[21, 30, 17, 21, 26, 21, 36, 18, 18, 21, 28, 30, 17, 36, 51, 32, 26, 35, 17, 51];

%%Initial positions:
%iPositions=[15, 8, 20, 14, 11, 13, 4, 17, 16, 12, 9, 7, 19, 3, 1, 6, 10, 5, 18, 2];

%%Position Constraints:
%numberPositionConstraints=1;

%%Total Fixtures:
%totalFixtures=38;

%%Fixtures to Play:
%fixturesToPlay=15;

%%Position Constraints Built With
%wantedPoints=[3, 1, 3, 1, 0, 0, 3, 1, 0, 1, 3, 1, 0, 0, 3, 3, 1, 1, 1, 0, 0, 0, 1, 3, 1, 1, 0, 0, 1, 1, 0, 0, 1, 3, 0, 1, 0, 3, 1, 1, 1, 1, 1, 3, 3, 1, 1, 0, 0, 1, 0, 3, 1, 3, 1, 3, 3, 3, 0, 3, 1, 0, 0, 0, 1, 0, 1, 3, 3, 0, 0, 0, 3, 1, 1, 3, 3, 0, 3, 0, 1, 3, 3, 0, 1, 1, 0, 3, 1, 1, 3, 1, 0, 0, 1, 0, 1, 3, 3, 3, 1, 0, 0, 0, 1, 3, 3, 0, 1, 1, 3, 0, 3, 0, 1, 0, 3, 1, 0, 0, 3, 1, 3, 3, 1, 1, 0, 0, 3, 0, 3, 0, 0, 0, 0, 1, 0, 1, 3, 3, 1, 0, 0, 1, 3, 1, 1, 0, 3, 0];

%%Probabilities:
probabilities=[|49,38,0,13,|51,22,0,27,|3,30,0,67,|85,13,0,2,|5,8,0,87,|37,32,0,31,|38,57,0,5,|93,1,0,6,|73,14,0,13,|16,69,0,15,|69,25,0,6,|53,47,0,0,|86,6,0,8,|30,0,0,70,|16,32,0,52,|56,44,0,0,|67,3,0,30,|47,37,0,16,|4,18,0,78,|11,84,0,5,|78,0,0,22,|91,6,0,3,|95,5,0,0,|95,4,0,1,|1,68,0,31,|35,5,0,60,|23,40,0,37,|18,73,0,9,|47,23,0,30,|19,72,0,9,|57,24,0,19,|77,3,0,20,|14,80,0,6,|23,4,0,73,|19,10,0,71,|4,25,0,71,|59,17,0,24,|56,18,0,26,|61,27,0,12,|22,38,0,40,|84,10,0,6,|65,5,0,30,|53,4,0,43,|73,15,0,12,|0,76,0,24,|9,14,0,77,|83,12,0,5,|57,31,0,12,|1,3,0,96,|10,1,0,89,|20,61,0,19,|0,99,0,1,|30,20,0,50,|83,17,0,0,|27,3,0,70,|12,67,0,21,|2,12,0,86,|65,29,0,6,|44,39,0,17,|16,66,0,18,|92,3,0,5,|25,65,0,10,|48,8,0,44,|61,13,0,26,|59,0,0,41,|13,9,0,78,|73,7,0,20,|23,47,0,30,|1,62,0,37,|45,17,0,38,|45,44,0,11,|61,22,0,17,|94,4,0,2,|8,18,0,74,|44,40,0,16,|11,45,0,44,|57,42,0,1,|12,52,0,36,|0,65,0,35,|39,16,0,45,|41,44,0,15,|48,43,0,9,|8,3,0,89,|94,0,0,6,|93,2,0,5,|3,49,0,48,|4,40,0,56,|41,25,0,34,|30,52,0,18,|100,0,0,0,|67,29,0,4,|41,32,0,27,|41,35,0,24,|60,0,0,40,|2,49,0,49,|68,21,0,11,|48,39,0,13,|74,6,0,20,|33,41,0,26,|58,31,0,11,|94,5,0,1,|63,5,0,32,|61,29,0,10,|92,2,0,6,|8,13,0,79,|37,8,0,55,|50,43,0,7,|95,4,0,1,|54,16,0,30,|0,24,0,76,|26,55,0,19,|12,23,0,65,|54,26,0,20,|75,7,0,18,|7,64,0,29,|92,1,0,7,|6,20,0,74,|84,4,0,12,|27,4,0,69,|84,12,0,4,|5,90,0,5,|85,12,0,3,|64,17,0,19,|58,21,0,21,|98,0,0,2,|99,0,0,1,|24,39,0,37,|43,14,0,43,|6,21,0,73,|7,3,0,90,|38,26,0,36,|73,22,0,5,|94,2,0,4,|24,45,0,31,|20,5,0,75,|23,39,0,38,|87,9,0,4,|59,22,0,19,|23,49,0,28,|29,70,0,1,|4,35,0,61,|96,3,0,1,|67,28,0,5,|19,57,0,24,|25,25,0,50,|47,9,0,44,|40,19,0,41,|81,3,0,16,|6,22,0,72,|7,72,0,21,|];


%POSITION CONSTRAINTS
%%[|teamID, operator, position|...]
%%operators index:
%%%1 for =  operator
%%%2 for >  operator
%%%3 for >= operator
%%%4 for <  operator
%%%5 for <= operator

positionConstraints=[|7,1,3|];

%SCORE VECTOR CONSTRAINTS
%%[|teamID, operator, wantedPoints|...]
%%operators index:
%%%1 for =  operator
%%%2 for >  operator
%%%3 for >= operator
%%%4 for <  operator
%%%5 for <= operator

%scoreVectorConstraints=[|7,1,62|];

%Instance Features:
%features=T,FP,TF,C,C/T,C/TF,FP/TF,FP/T,FP*C/T,FP*T/C,(C/T)*(FP/TF),Distance,Distance/C,Distance/T,Distance/(C*T)
%values=20,15,38,1,0.05,0.02631578947368421,0.3947368421052632,0.75,0.75,300.0,0.01973684210526316,1,1.0,0.05,0.05



